decision_x1=[0,7];
decision_x2=[0,7];
decision_x3=[0,7];
decision_x4=[0,7];
decision_x5=[0,7];
decision_x6=[0,7];
decision_x7=[0,7];
decision_x8=[0,7];
decision_x9=[0,7];
decision_x10=[0,7];
decision_x11=[0,7];
decision_x12=[0,7];
decision_x13=[0,7];
decision_x14=[0,7];
decision_x15=[0,7];
decision_x16=[0,7];
decision_x17=[0,7];
decision_x18=[0,7];
decision_x19=[0,7];
decision_x20=[0,7];
random_y1=[0,7];
random_y2=[0,7];
random_y3=[0,7];
random_y4=[0,7];
random_y5=[0,7];
random_y6=[0,7];
random_y7=[0,7];
random_y8=[0,7];
random_y9=[0,7];
constraint_x2_x1=[
0,0,5.8|
0,1,3.1|
0,2,5|
0,3,6.4|
0,4,6.8|
0,5,2.1|
0,6,9.4|
0,7,1.1|
1,0,6.7|
1,1,5.2|
1,2,8.2|
1,3,7.9|
1,4,5.3|
1,5,5|
1,6,0.18|
1,7,8.8|
2,0,7.5|
2,1,4.5|
2,2,5.6|
2,3,4.6|
2,4,7.6|
2,5,2|
2,6,3.8|
2,7,4|
3,0,9.6|
3,1,4.3|
3,2,5.4|
3,3,7.8|
3,4,1.5|
3,5,9.5|
3,6,3.8|
3,7,2|
4,0,7.1|
4,1,7.6|
4,2,4|
4,3,2.6|
4,4,4.3|
4,5,7.5|
4,6,4.7|
4,7,5.1|
5,0,3.7|
5,1,0.92|
5,2,1.2|
5,3,6.1|
5,4,6.5|
5,5,10|
5,6,6.9|
5,7,9.4|
6,0,2.9|
6,1,3.8|
6,2,4.8|
6,3,0.33|
6,4,9|
6,5,4.8|
6,6,3.2|
6,7,3.6|
7,0,8.4|
7,1,4.5|
7,2,2.5|
7,3,6.3|
7,4,9.8|
7,5,8.4|
7,6,8.4|
7,7,8|
];
constraint_x3_x2=[
0,0,3.4|
0,1,7.5|
0,2,4|
0,3,9.6|
0,4,9|
0,5,9.6|
0,6,6.1|
0,7,2.8|
1,0,7.8|
1,1,8.1|
1,2,4.3|
1,3,9.3|
1,4,7.9|
1,5,2.8|
1,6,5.7|
1,7,7.5|
2,0,8.3|
2,1,9|
2,2,0.85|
2,3,1.7|
2,4,1.9|
2,5,3.8|
2,6,5.7|
2,7,7.9|
3,0,5.8|
3,1,6.8|
3,2,2|
3,3,8.3|
3,4,5.8|
3,5,8.3|
3,6,4.3|
3,7,7.5|
4,0,9.2|
4,1,4.4|
4,2,0.28|
4,3,5.1|
4,4,6.8|
4,5,8|
4,6,7|
4,7,9.9|
5,0,0.71|
5,1,7.1|
5,2,9.1|
5,3,2.7|
5,4,7.4|
5,5,2.9|
5,6,5.9|
5,7,0.44|
6,0,1.3|
6,1,2.4|
6,2,3.2|
6,3,9.2|
6,4,0.71|
6,5,3.8|
6,6,8|
6,7,8.8|
7,0,7.8|
7,1,6.2|
7,2,8.1|
7,3,5.4|
7,4,5.6|
7,5,0.67|
7,6,6.1|
7,7,2|
];
constraint_x4_x3=[
0,0,6.8|
0,1,5.6|
0,2,8.1|
0,3,2.7|
0,4,6.8|
0,5,5.4|
0,6,0.37|
0,7,0.075|
1,0,2.3|
1,1,3.5|
1,2,0.93|
1,3,5.7|
1,4,2|
1,5,6.9|
1,6,2.8|
1,7,7|
2,0,9.7|
2,1,3.8|
2,2,7.9|
2,3,0.062|
2,4,4.8|
2,5,4.5|
2,6,5.5|
2,7,5.7|
3,0,9|
3,1,2.6|
3,2,3.9|
3,3,2.8|
3,4,8.2|
3,5,5.9|
3,6,0.55|
3,7,1.8|
4,0,9.1|
4,1,4.1|
4,2,5.9|
4,3,4.2|
4,4,3.9|
4,5,6.8|
4,6,5.2|
4,7,3.9|
5,0,4.8|
5,1,0.057|
5,2,9.3|
5,3,0.76|
5,4,1.3|
5,5,5.4|
5,6,2.6|
5,7,4.2|
6,0,10|
6,1,2.1|
6,2,6.8|
6,3,2.3|
6,4,3.2|
6,5,8.4|
6,6,7.5|
6,7,0.22|
7,0,3.6|
7,1,9.4|
7,2,9.3|
7,3,5.4|
7,4,6.2|
7,5,2.6|
7,6,7.1|
7,7,2.1|
];
constraint_x5_x1=[
0,0,8.6|
0,1,6.6|
0,2,2.3|
0,3,8.9|
0,4,2.2|
0,5,9.5|
0,6,4.7|
0,7,6|
1,0,3.8|
1,1,5.7|
1,2,4.5|
1,3,0.35|
1,4,9.4|
1,5,7.9|
1,6,1.6|
1,7,2.4|
2,0,6.8|
2,1,3.6|
2,2,2|
2,3,3|
2,4,0.98|
2,5,1.2|
2,6,3|
2,7,7.5|
3,0,0.92|
3,1,3.6|
3,2,6.3|
3,3,9.6|
3,4,4|
3,5,0.96|
3,6,4.7|
3,7,2|
4,0,4.6|
4,1,8.5|
4,2,3.5|
4,3,0.19|
4,4,2.8|
4,5,9.8|
4,6,0.37|
4,7,8.4|
5,0,4.6|
5,1,1.7|
5,2,4|
5,3,3.3|
5,4,2.7|
5,5,2.5|
5,6,3.2|
5,7,9.1|
6,0,4.3|
6,1,4.4|
6,2,3.7|
6,3,7.5|
6,4,7.3|
6,5,3.6|
6,6,8.8|
6,7,1.4|
7,0,4.8|
7,1,2.3|
7,2,6.3|
7,3,8.4|
7,4,6.7|
7,5,5.4|
7,6,5.3|
7,7,8.2|
];
constraint_x6_x2=[
0,0,0.24|
0,1,0.33|
0,2,6.3|
0,3,8.8|
0,4,9.8|
0,5,1.2|
0,6,6.5|
0,7,9|
1,0,8.6|
1,1,2|
1,2,7.6|
1,3,5.8|
1,4,1.7|
1,5,2.6|
1,6,5.5|
1,7,2.9|
2,0,9.5|
2,1,5.6|
2,2,5.8|
2,3,4.1|
2,4,7.8|
2,5,6|
2,6,4.1|
2,7,8.8|
3,0,2.7|
3,1,8.1|
3,2,6.7|
3,3,5.1|
3,4,9.9|
3,5,3.4|
3,6,2|
3,7,6.9|
4,0,4.4|
4,1,2.5|
4,2,5.5|
4,3,5.1|
4,4,7.9|
4,5,7.3|
4,6,0.26|
4,7,5.7|
5,0,6.6|
5,1,0.17|
5,2,4.9|
5,3,9.9|
5,4,0.82|
5,5,8.5|
5,6,5.5|
5,7,7|
6,0,4.9|
6,1,9.7|
6,2,7.2|
6,3,6.9|
6,4,0.64|
6,5,7.6|
6,6,0.7|
6,7,10|
7,0,6.5|
7,1,7.4|
7,2,4.2|
7,3,6|
7,4,1.2|
7,5,1.9|
7,6,9.5|
7,7,2|
];
constraint_x6_x5=[
0,0,1.7|
0,1,7.3|
0,2,3.9|
0,3,7.6|
0,4,1.1|
0,5,2.1|
0,6,4.2|
0,7,8.7|
1,0,9.2|
1,1,5.9|
1,2,4.5|
1,3,3.6|
1,4,4.6|
1,5,7.9|
1,6,7.3|
1,7,3.9|
2,0,1|
2,1,5.8|
2,2,9.2|
2,3,6.1|
2,4,3.5|
2,5,9.4|
2,6,1.8|
2,7,3.2|
3,0,7.4|
3,1,1.4|
3,2,0.62|
3,3,8.9|
3,4,8.1|
3,5,9.3|
3,6,8.4|
3,7,8.7|
4,0,7.6|
4,1,8.2|
4,2,3.8|
4,3,6.2|
4,4,3.7|
4,5,0.78|
4,6,8.4|
4,7,9.4|
5,0,2.1|
5,1,9|
5,2,9.6|
5,3,2.3|
5,4,1.7|
5,5,1.5|
5,6,5|
5,7,9.7|
6,0,0.61|
6,1,2.5|
6,2,4.9|
6,3,4.5|
6,4,0.25|
6,5,4.2|
6,6,3.7|
6,7,4.8|
7,0,9|
7,1,1.4|
7,2,3.9|
7,3,1.5|
7,4,7.7|
7,5,0.44|
7,6,7.4|
7,7,1.5|
];
constraint_x7_x3=[
0,0,3.9|
0,1,6.3|
0,2,9|
0,3,3.8|
0,4,5.1|
0,5,6.6|
0,6,7.8|
0,7,8|
1,0,1.8|
1,1,4.2|
1,2,8.7|
1,3,7.1|
1,4,4|
1,5,0.16|
1,6,2|
1,7,8.3|
2,0,3|
2,1,3|
2,2,6.2|
2,3,8.8|
2,4,7.4|
2,5,8.5|
2,6,7.9|
2,7,7.4|
3,0,9.5|
3,1,3.5|
3,2,0.27|
3,3,9.2|
3,4,3.2|
3,5,4.4|
3,6,7.9|
3,7,2.9|
4,0,4.7|
4,1,3.8|
4,2,3.7|
4,3,5|
4,4,6.9|
4,5,5.4|
4,6,7.9|
4,7,7.3|
5,0,4.5|
5,1,2|
5,2,5.6|
5,3,2.5|
5,4,1.6|
5,5,9.8|
5,6,5.3|
5,7,1.8|
6,0,8.9|
6,1,1.8|
6,2,7.4|
6,3,7.8|
6,4,0.81|
6,5,9|
6,6,5.8|
6,7,7|
7,0,3.1|
7,1,6.8|
7,2,7.9|
7,3,3.4|
7,4,0.74|
7,5,0.26|
7,6,9.8|
7,7,6.1|
];
constraint_x7_x6=[
0,0,7.7|
0,1,4.2|
0,2,0.53|
0,3,9|
0,4,1.2|
0,5,4.9|
0,6,7.1|
0,7,1.1|
1,0,2.4|
1,1,8.9|
1,2,3.3|
1,3,5.7|
1,4,5.5|
1,5,0.19|
1,6,0.12|
1,7,9.5|
2,0,0.8|
2,1,4.8|
2,2,3|
2,3,8|
2,4,0.76|
2,5,5.1|
2,6,0.52|
2,7,0.2|
3,0,7.1|
3,1,5.1|
3,2,6.5|
3,3,8.1|
3,4,5.7|
3,5,1.1|
3,6,9.4|
3,7,5.3|
4,0,2.3|
4,1,1.7|
4,2,0.66|
4,3,2.4|
4,4,4.2|
4,5,2.9|
4,6,6.1|
4,7,1.9|
5,0,3|
5,1,6.3|
5,2,6.7|
5,3,2.2|
5,4,3|
5,5,7.4|
5,6,5.1|
5,7,0.38|
6,0,4.1|
6,1,4.2|
6,2,5.6|
6,3,8.4|
6,4,5.7|
6,5,2.8|
6,6,1.1|
6,7,5|
7,0,7.5|
7,1,9.2|
7,2,5.7|
7,3,7.3|
7,4,6.8|
7,5,2.3|
7,6,6.3|
7,7,8.9|
];
constraint_x8_x4=[
0,0,3.3|
0,1,4.9|
0,2,4.4|
0,3,9.1|
0,4,8.5|
0,5,5.7|
0,6,4.8|
0,7,4.3|
1,0,0.013|
1,1,3.4|
1,2,7.6|
1,3,5.2|
1,4,0.043|
1,5,1.6|
1,6,3.6|
1,7,1.9|
2,0,3|
2,1,8.2|
2,2,3.8|
2,3,6.1|
2,4,4.8|
2,5,9.6|
2,6,6.1|
2,7,3.8|
3,0,7.2|
3,1,4.2|
3,2,8.6|
3,3,8.4|
3,4,7.5|
3,5,5.2|
3,6,6.1|
3,7,3.2|
4,0,1.2|
4,1,0.45|
4,2,7.4|
4,3,5.3|
4,4,0.35|
4,5,0.3|
4,6,7.4|
4,7,2.6|
5,0,7|
5,1,8.3|
5,2,0.73|
5,3,7.6|
5,4,6.7|
5,5,1.4|
5,6,1.9|
5,7,2.9|
6,0,8|
6,1,2.1|
6,2,7.8|
6,3,6.8|
6,4,7.9|
6,5,2.5|
6,6,10|
6,7,2.3|
7,0,0.31|
7,1,7.8|
7,2,2.7|
7,3,7|
7,4,5.8|
7,5,6.4|
7,6,9.5|
7,7,7.5|
];
constraint_x8_x7=[
0,0,0.82|
0,1,3.4|
0,2,3.5|
0,3,5.4|
0,4,9.6|
0,5,6.9|
0,6,1.1|
0,7,8.3|
1,0,6.4|
1,1,9.3|
1,2,1.7|
1,3,0.82|
1,4,9.1|
1,5,9.9|
1,6,0.9|
1,7,2.9|
2,0,7.2|
2,1,7.9|
2,2,6.2|
2,3,9.4|
2,4,4.5|
2,5,5.6|
2,6,9.8|
2,7,8.9|
3,0,1.5|
3,1,7.3|
3,2,2.7|
3,3,7.2|
3,4,4.9|
3,5,8.8|
3,6,5.5|
3,7,9.3|
4,0,4.6|
4,1,1.5|
4,2,7.8|
4,3,1.5|
4,4,2.2|
4,5,6.4|
4,6,3.2|
4,7,7.5|
5,0,2.6|
5,1,4.7|
5,2,2.9|
5,3,6.1|
5,4,6.9|
5,5,0.92|
5,6,6.3|
5,7,4.2|
6,0,7.7|
6,1,9.3|
6,2,6.7|
6,3,2.9|
6,4,3.6|
6,5,3.6|
6,6,0.9|
6,7,8.8|
7,0,3.5|
7,1,9.9|
7,2,9.7|
7,3,4.9|
7,4,4|
7,5,1|
7,6,1.2|
7,7,8.8|
];
constraint_x9_x5=[
0,0,7.7|
0,1,9.9|
0,2,2.7|
0,3,5.1|
0,4,6.1|
0,5,8.4|
0,6,7.5|
0,7,9.6|
1,0,0.026|
1,1,0.35|
1,2,6.4|
1,3,8.7|
1,4,2.8|
1,5,4.2|
1,6,9.9|
1,7,5.9|
2,0,7.1|
2,1,2.6|
2,2,2.9|
2,3,6.3|
2,4,5.9|
2,5,3.4|
2,6,6.5|
2,7,9.1|
3,0,0.69|
3,1,4.2|
3,2,2.5|
3,3,6.2|
3,4,7.8|
3,5,9.2|
3,6,0.15|
3,7,9.1|
4,0,3|
4,1,5.6|
4,2,9.9|
4,3,7.1|
4,4,5|
4,5,8.5|
4,6,1.5|
4,7,2.7|
5,0,7.3|
5,1,9.8|
5,2,6.9|
5,3,3.5|
5,4,7.8|
5,5,4.8|
5,6,3.7|
5,7,5.8|
6,0,1.4|
6,1,1.1|
6,2,9.6|
6,3,3|
6,4,1.6|
6,5,8.2|
6,6,3.6|
6,7,5.1|
7,0,2.7|
7,1,9.1|
7,2,0.096|
7,3,3.2|
7,4,0.21|
7,5,1.3|
7,6,7|
7,7,1.1|
];
constraint_x10_x6=[
0,0,3.4|
0,1,0.048|
0,2,7.4|
0,3,8.1|
0,4,3.7|
0,5,7.6|
0,6,8.7|
0,7,7.5|
1,0,2.7|
1,1,9.4|
1,2,7.3|
1,3,4.2|
1,4,9.1|
1,5,1.1|
1,6,4.9|
1,7,6.1|
2,0,7.3|
2,1,6.6|
2,2,3.1|
2,3,9.5|
2,4,6|
2,5,0.85|
2,6,5.2|
2,7,8|
3,0,6.1|
3,1,1.7|
3,2,1.5|
3,3,9|
3,4,0.23|
3,5,2|
3,6,7.8|
3,7,0.16|
4,0,0.047|
4,1,7.6|
4,2,1.7|
4,3,5.1|
4,4,2.9|
4,5,4|
4,6,4.5|
4,7,5.1|
5,0,0.72|
5,1,10|
5,2,2|
5,3,4|
5,4,3.2|
5,5,6.8|
5,6,5.8|
5,7,4.1|
6,0,7.9|
6,1,4.3|
6,2,9.7|
6,3,6.4|
6,4,8.9|
6,5,0.93|
6,6,9.9|
6,7,9.6|
7,0,10|
7,1,1.2|
7,2,3.2|
7,3,3.7|
7,4,8.3|
7,5,7.3|
7,6,3|
7,7,4.8|
];
constraint_x11_x7=[
0,0,7.2|
0,1,6.2|
0,2,4.3|
0,3,0.018|
0,4,6.1|
0,5,2.2|
0,6,2.3|
0,7,5.7|
1,0,9.1|
1,1,3.7|
1,2,8.4|
1,3,1.3|
1,4,3.9|
1,5,6.7|
1,6,7.1|
1,7,1.5|
2,0,3.9|
2,1,2.2|
2,2,6.1|
2,3,0.52|
2,4,4.7|
2,5,3.4|
2,6,1.8|
2,7,7|
3,0,1.1|
3,1,5.8|
3,2,8.2|
3,3,3|
3,4,7.9|
3,5,8.4|
3,6,7.5|
3,7,7.2|
4,0,7.5|
4,1,9.8|
4,2,9|
4,3,0.64|
4,4,1.6|
4,5,8.6|
4,6,2.1|
4,7,8.4|
5,0,1.2|
5,1,0.53|
5,2,0.97|
5,3,1.9|
5,4,1.2|
5,5,6.9|
5,6,3.3|
5,7,0.24|
6,0,0.92|
6,1,8.7|
6,2,3.7|
6,3,7.3|
6,4,2|
6,5,6.7|
6,6,7.3|
6,7,9.1|
7,0,6.4|
7,1,3.1|
7,2,4|
7,3,7.3|
7,4,7.3|
7,5,8.5|
7,6,6.8|
7,7,8.3|
];
constraint_x12_x8=[
0,0,7.4|
0,1,0.42|
0,2,7.5|
0,3,2.2|
0,4,7.5|
0,5,3.5|
0,6,9.3|
0,7,3|
1,0,7.6|
1,1,0.81|
1,2,7.2|
1,3,1.8|
1,4,3.3|
1,5,5|
1,6,2.9|
1,7,2.7|
2,0,5.6|
2,1,9.9|
2,2,7.2|
2,3,8.7|
2,4,7.7|
2,5,7.1|
2,6,3.3|
2,7,6.6|
3,0,4|
3,1,6.9|
3,2,0.29|
3,3,3|
3,4,7.7|
3,5,9.1|
3,6,9.7|
3,7,0.64|
4,0,3|
4,1,2.8|
4,2,3.4|
4,3,8.1|
4,4,5|
4,5,9.7|
4,6,2.6|
4,7,4.2|
5,0,4.8|
5,1,8.5|
5,2,5.2|
5,3,2.9|
5,4,8.5|
5,5,4.9|
5,6,0.99|
5,7,5.6|
6,0,1.5|
6,1,9.5|
6,2,0.78|
6,3,4.4|
6,4,5.9|
6,5,0.27|
6,6,4.6|
6,7,5.8|
7,0,0.67|
7,1,9.1|
7,2,6.5|
7,3,6.7|
7,4,0.68|
7,5,3.3|
7,6,6.9|
7,7,4.5|
];
constraint_x13_x9=[
0,0,9.5|
0,1,9|
0,2,1.8|
0,3,9.8|
0,4,10|
0,5,0.47|
0,6,2.3|
0,7,5.3|
1,0,7.8|
1,1,8.4|
1,2,1.1|
1,3,7.3|
1,4,5.4|
1,5,2.9|
1,6,1.8|
1,7,6.3|
2,0,2.1|
2,1,5.1|
2,2,4.4|
2,3,9.1|
2,4,6.2|
2,5,3.6|
2,6,5.9|
2,7,6.1|
3,0,1.4|
3,1,4.6|
3,2,7.9|
3,3,9.7|
3,4,3.7|
3,5,1.7|
3,6,7.7|
3,7,3.7|
4,0,1.1|
4,1,7.9|
4,2,0.66|
4,3,5.3|
4,4,8.4|
4,5,1.1|
4,6,5.9|
4,7,2.6|
5,0,7.8|
5,1,7.9|
5,2,8.8|
5,3,0.39|
5,4,2.8|
5,5,3.6|
5,6,8.6|
5,7,6.2|
6,0,3.2|
6,1,0.11|
6,2,0.075|
6,3,0.89|
6,4,6.7|
6,5,6.6|
6,6,0.04|
6,7,5.2|
7,0,10|
7,1,2.4|
7,2,1.7|
7,3,0.88|
7,4,2.9|
7,5,8.1|
7,6,3.7|
7,7,4.4|
];
constraint_x14_x10=[
0,0,2|
0,1,1.1|
0,2,7.2|
0,3,6.8|
0,4,0.6|
0,5,5.3|
0,6,5.5|
0,7,0.49|
1,0,2.4|
1,1,6.9|
1,2,9.3|
1,3,7.1|
1,4,1.4|
1,5,4.6|
1,6,5|
1,7,9.5|
2,0,3.3|
2,1,5.6|
2,2,3.5|
2,3,6.7|
2,4,7.7|
2,5,5.5|
2,6,5.4|
2,7,3.9|
3,0,5.5|
3,1,6.3|
3,2,4.2|
3,3,4|
3,4,6.8|
3,5,4.7|
3,6,6.8|
3,7,8.5|
4,0,8.7|
4,1,9.5|
4,2,6.5|
4,3,4.7|
4,4,6.8|
4,5,9.2|
4,6,1.6|
4,7,7.9|
5,0,8.1|
5,1,4.2|
5,2,2.4|
5,3,1.9|
5,4,4|
5,5,9.1|
5,6,7|
5,7,4|
6,0,7.8|
6,1,3.3|
6,2,3|
6,3,7.7|
6,4,7.8|
6,5,1.6|
6,6,3.5|
6,7,3.6|
7,0,0.39|
7,1,4.2|
7,2,6.7|
7,3,6.6|
7,4,0.12|
7,5,5.7|
7,6,2.3|
7,7,7.7|
];
constraint_x15_x11=[
0,0,9.4|
0,1,5.8|
0,2,2.6|
0,3,0.77|
0,4,8.2|
0,5,9.9|
0,6,6.7|
0,7,4.7|
1,0,7.2|
1,1,2.7|
1,2,1.4|
1,3,6.1|
1,4,2.9|
1,5,2.2|
1,6,6.2|
1,7,2.8|
2,0,6.1|
2,1,3.6|
2,2,1.9|
2,3,9.5|
2,4,2.3|
2,5,0.92|
2,6,5.9|
2,7,6.6|
3,0,3.6|
3,1,5.7|
3,2,9.2|
3,3,6.6|
3,4,8.9|
3,5,5.6|
3,6,9.3|
3,7,3|
4,0,7.9|
4,1,9.6|
4,2,3.6|
4,3,1.3|
4,4,5.4|
4,5,9.2|
4,6,7.7|
4,7,6.2|
5,0,8.2|
5,1,3.2|
5,2,2.4|
5,3,9.3|
5,4,9|
5,5,1.5|
5,6,7.4|
5,7,3.9|
6,0,1.8|
6,1,3.6|
6,2,0.23|
6,3,9.6|
6,4,5.4|
6,5,9.2|
6,6,7.4|
6,7,0.0055|
7,0,4.7|
7,1,2.3|
7,2,3.4|
7,3,6|
7,4,5.8|
7,5,2.3|
7,6,5.9|
7,7,4.7|
];
constraint_x16_x12=[
0,0,6.2|
0,1,0.11|
0,2,8.2|
0,3,7.4|
0,4,1.6|
0,5,8.8|
0,6,7.4|
0,7,0.33|
1,0,8.7|
1,1,9.6|
1,2,7.1|
1,3,5|
1,4,2.6|
1,5,8.6|
1,6,7.6|
1,7,6|
2,0,8.6|
2,1,0.25|
2,2,1.7|
2,3,4.2|
2,4,9.1|
2,5,8.6|
2,6,9.4|
2,7,3.8|
3,0,6.8|
3,1,2.7|
3,2,9.2|
3,3,6.1|
3,4,3.8|
3,5,1.7|
3,6,7.9|
3,7,4|
4,0,8.1|
4,1,1.5|
4,2,9.8|
4,3,0.78|
4,4,4.3|
4,5,5|
4,6,3.3|
4,7,8.3|
5,0,6.2|
5,1,8.3|
5,2,3.2|
5,3,9.4|
5,4,2.2|
5,5,3.1|
5,6,3.3|
5,7,8.4|
6,0,5.2|
6,1,9.1|
6,2,2.2|
6,3,7.5|
6,4,9.9|
6,5,0.85|
6,6,7.7|
6,7,3.8|
7,0,6.1|
7,1,2.7|
7,2,0.16|
7,3,2.9|
7,4,3.6|
7,5,7.8|
7,6,2.9|
7,7,9.8|
];
constraint_x17_x13=[
0,0,4.8|
0,1,9.2|
0,2,9.5|
0,3,5.7|
0,4,3|
0,5,5.9|
0,6,5.7|
0,7,0.79|
1,0,5.2|
1,1,9.9|
1,2,4.5|
1,3,6.7|
1,4,0.72|
1,5,8.9|
1,6,3.9|
1,7,9|
2,0,8.6|
2,1,9.2|
2,2,8.5|
2,3,3.9|
2,4,2|
2,5,4.5|
2,6,4.4|
2,7,6.1|
3,0,0.043|
3,1,9.9|
3,2,8.8|
3,3,4|
3,4,1.4|
3,5,3.1|
3,6,2.5|
3,7,7.5|
4,0,2.9|
4,1,1.6|
4,2,5.8|
4,3,1.3|
4,4,2.8|
4,5,6.2|
4,6,0.07|
4,7,0.89|
5,0,0.87|
5,1,8.8|
5,2,4.3|
5,3,9.2|
5,4,3.7|
5,5,9|
5,6,1.8|
5,7,0.087|
6,0,0.82|
6,1,1.7|
6,2,4.3|
6,3,3.6|
6,4,2.3|
6,5,8.8|
6,6,1.3|
6,7,3.2|
7,0,5.2|
7,1,7.3|
7,2,1.7|
7,3,2.4|
7,4,1.4|
7,5,1|
7,6,1.7|
7,7,5.9|
];
constraint_x18_x14=[
0,0,7.1|
0,1,5.1|
0,2,9.6|
0,3,7.6|
0,4,6|
0,5,2.8|
0,6,3.7|
0,7,9.3|
1,0,4.2|
1,1,6.3|
1,2,4.1|
1,3,7.5|
1,4,8.5|
1,5,8.1|
1,6,5|
1,7,6.9|
2,0,2.7|
2,1,6.1|
2,2,3.3|
2,3,4.3|
2,4,9.4|
2,5,4.5|
2,6,1.5|
2,7,0.14|
3,0,0.33|
3,1,7.9|
3,2,7.7|
3,3,7|
3,4,9.1|
3,5,6.4|
3,6,3.5|
3,7,2.7|
4,0,5.8|
4,1,7|
4,2,9.7|
4,3,6.3|
4,4,9|
4,5,5.9|
4,6,4.6|
4,7,6.6|
5,0,8.7|
5,1,3.9|
5,2,4.4|
5,3,6.8|
5,4,5.8|
5,5,5.8|
5,6,2.9|
5,7,9.9|
6,0,9.9|
6,1,0.54|
6,2,2|
6,3,6.6|
6,4,1.6|
6,5,7.6|
6,6,7.1|
6,7,7.1|
7,0,5.7|
7,1,8.3|
7,2,5.1|
7,3,3.8|
7,4,3.1|
7,5,2.7|
7,6,7.6|
7,7,8.6|
];
constraint_x19_x15=[
0,0,0.12|
0,1,6.4|
0,2,8.6|
0,3,6.8|
0,4,7.4|
0,5,5|
0,6,6.9|
0,7,3.7|
1,0,0.27|
1,1,3.7|
1,2,5.9|
1,3,5.8|
1,4,5.3|
1,5,6.7|
1,6,6.1|
1,7,1.7|
2,0,4.4|
2,1,4.1|
2,2,7.8|
2,3,8.1|
2,4,2.6|
2,5,9.8|
2,6,9|
2,7,9.1|
3,0,1.2|
3,1,4.7|
3,2,0.51|
3,3,0.8|
3,4,4.2|
3,5,2.4|
3,6,0.77|
3,7,8.3|
4,0,8|
4,1,7|
4,2,0.92|
4,3,4|
4,4,6.7|
4,5,8.9|
4,6,5.9|
4,7,6.3|
5,0,5.4|
5,1,5.8|
5,2,0.48|
5,3,4.8|
5,4,5.6|
5,5,9.8|
5,6,2|
5,7,4.8|
6,0,9.5|
6,1,2.2|
6,2,5.4|
6,3,1.1|
6,4,0.61|
6,5,6.2|
6,6,2.3|
6,7,6.4|
7,0,6.1|
7,1,4.6|
7,2,3.3|
7,3,8.9|
7,4,4.8|
7,5,4.6|
7,6,1.8|
7,7,9.9|
];
constraint_x20_x16=[
0,0,4.3|
0,1,5.4|
0,2,7.2|
0,3,2.7|
0,4,8.3|
0,5,1.9|
0,6,8.4|
0,7,0.12|
1,0,9|
1,1,5.2|
1,2,7.3|
1,3,9.9|
1,4,0.95|
1,5,7.9|
1,6,3.7|
1,7,8.3|
2,0,2.4|
2,1,6|
2,2,7|
2,3,7|
2,4,9.7|
2,5,8.1|
2,6,4.4|
2,7,6|
3,0,1.2|
3,1,6.2|
3,2,6.6|
3,3,5.6|
3,4,2.8|
3,5,1.6|
3,6,6|
3,7,8.8|
4,0,5.6|
4,1,6.2|
4,2,3.7|
4,3,6|
4,4,6.7|
4,5,1.8|
4,6,7.5|
4,7,8.3|
5,0,1.5|
5,1,4.4|
5,2,9.2|
5,3,8.6|
5,4,6.4|
5,5,1.4|
5,6,0.074|
5,7,0.73|
6,0,1.7|
6,1,8.6|
6,2,3.1|
6,3,8.6|
6,4,6.2|
6,5,2.2|
6,6,8.3|
6,7,7.5|
7,0,0.056|
7,1,1.9|
7,2,8.3|
7,3,2.5|
7,4,7.2|
7,5,6|
7,6,6.8|
7,7,1.2|
];
constraint_x1_y1=[
0,0,3.5|
0,1,1.2|
0,2,2.9|
0,3,2.6|
0,4,1.6|
0,5,0.96|
0,6,5.5|
0,7,0.9|
1,0,9.3|
1,1,3.9|
1,2,4.4|
1,3,3.2|
1,4,0.59|
1,5,0.24|
1,6,3.9|
1,7,1.6|
2,0,3|
2,1,2.4|
2,2,4.8|
2,3,6|
2,4,9.3|
2,5,1.8|
2,6,3.8|
2,7,2.7|
3,0,6.8|
3,1,0.46|
3,2,2.7|
3,3,6|
3,4,8.5|
3,5,3.4|
3,6,6.1|
3,7,5.1|
4,0,0.75|
4,1,0.96|
4,2,3|
4,3,7.8|
4,4,5.7|
4,5,0.59|
4,6,4.4|
4,7,4.5|
5,0,6|
5,1,9.4|
5,2,6.6|
5,3,0.84|
5,4,7.1|
5,5,0.83|
5,6,2.3|
5,7,1.2|
6,0,8.1|
6,1,8.2|
6,2,5.7|
6,3,8.4|
6,4,2.4|
6,5,7.5|
6,6,3.9|
6,7,9.1|
7,0,8.2|
7,1,3|
7,2,1.9|
7,3,5.3|
7,4,9.5|
7,5,5.1|
7,6,7.5|
7,7,3|
];
constraint_x2_y2=[
0,0,5.4|
0,1,6.1|
0,2,8.3|
0,3,2.9|
0,4,0.65|
0,5,7.3|
0,6,8.7|
0,7,0.68|
1,0,6.1|
1,1,7.4|
1,2,0.054|
1,3,2.1|
1,4,0.67|
1,5,6.4|
1,6,9.2|
1,7,3.6|
2,0,5.1|
2,1,3.2|
2,2,7.6|
2,3,3.7|
2,4,2.2|
2,5,0.062|
2,6,8.2|
2,7,0.8|
3,0,8.6|
3,1,3.4|
3,2,7.4|
3,3,8.3|
3,4,7.8|
3,5,8.6|
3,6,4.5|
3,7,2.1|
4,0,9.2|
4,1,0.062|
4,2,4.6|
4,3,6.5|
4,4,1.1|
4,5,5|
4,6,8.6|
4,7,10|
5,0,8.5|
5,1,2|
5,2,0.47|
5,3,1.4|
5,4,0.52|
5,5,9.5|
5,6,0.58|
5,7,9.9|
6,0,3.1|
6,1,8.5|
6,2,6.2|
6,3,0.46|
6,4,9.7|
6,5,0.56|
6,6,7.9|
6,7,5|
7,0,5.2|
7,1,1.3|
7,2,6.1|
7,3,7.8|
7,4,7.3|
7,5,5.4|
7,6,2.9|
7,7,0.061|
];
constraint_x3_y3=[
0,0,9.7|
0,1,5.8|
0,2,0.74|
0,3,2|
0,4,0.88|
0,5,9|
0,6,9.8|
0,7,5.2|
1,0,8.4|
1,1,2.5|
1,2,6.6|
1,3,5.3|
1,4,4.2|
1,5,9.6|
1,6,9.3|
1,7,9.2|
2,0,2.1|
2,1,8.1|
2,2,6.8|
2,3,9.7|
2,4,5.5|
2,5,6.3|
2,6,1.6|
2,7,0.58|
3,0,0.69|
3,1,2.1|
3,2,5.6|
3,3,6.9|
3,4,3.6|
3,5,3.9|
3,6,1.6|
3,7,5.5|
4,0,1.3|
4,1,4.4|
4,2,4.3|
4,3,2.5|
4,4,7.6|
4,5,3|
4,6,7.1|
4,7,9.9|
5,0,3|
5,1,8.6|
5,2,2.9|
5,3,1.2|
5,4,8.5|
5,5,9.8|
5,6,2|
5,7,5.3|
6,0,6.3|
6,1,1.4|
6,2,5.6|
6,3,5.7|
6,4,3.6|
6,5,4.8|
6,6,8.4|
6,7,5.4|
7,0,0.15|
7,1,8.2|
7,2,0.038|
7,3,0.77|
7,4,2.6|
7,5,0.2|
7,6,9.5|
7,7,1.8|
];
constraint_x4_y4=[
0,0,4.2|
0,1,2.4|
0,2,8|
0,3,8.9|
0,4,2.2|
0,5,4.8|
0,6,9.9|
0,7,8.1|
1,0,7.4|
1,1,5.4|
1,2,1.2|
1,3,1.6|
1,4,1.1|
1,5,9.6|
1,6,4.9|
1,7,2.4|
2,0,1.8|
2,1,0.0092|
2,2,6|
2,3,8.4|
2,4,9.8|
2,5,6.9|
2,6,4.7|
2,7,5.5|
3,0,2.1|
3,1,7.9|
3,2,8.1|
3,3,0.91|
3,4,1.8|
3,5,4.1|
3,6,8|
3,7,5.3|
4,0,4.5|
4,1,0.31|
4,2,6.3|
4,3,9.1|
4,4,4.1|
4,5,9.4|
4,6,2.4|
4,7,4|
5,0,1.7|
5,1,5.5|
5,2,0.46|
5,3,1.9|
5,4,7.6|
5,5,5.5|
5,6,7.9|
5,7,7.6|
6,0,9.6|
6,1,2.4|
6,2,1.4|
6,3,4.9|
6,4,6.3|
6,5,5.3|
6,6,7.4|
6,7,2.6|
7,0,2.3|
7,1,4.3|
7,2,3.6|
7,3,1.5|
7,4,6.9|
7,5,2.9|
7,6,7.2|
7,7,7.6|
];
constraint_x5_y5=[
0,0,2.1|
0,1,0.19|
0,2,4.9|
0,3,5.9|
0,4,8.4|
0,5,7.8|
0,6,7.8|
0,7,8.8|
1,0,5.8|
1,1,6.3|
1,2,2.4|
1,3,0.7|
1,4,4.9|
1,5,0.46|
1,6,4.2|
1,7,1.5|
2,0,6.6|
2,1,2.1|
2,2,7.6|
2,3,2.7|
2,4,7.2|
2,5,10|
2,6,7|
2,7,0.88|
3,0,9.5|
3,1,5.4|
3,2,6.9|
3,3,5.7|
3,4,9.7|
3,5,3.8|
3,6,8.1|
3,7,5.8|
4,0,5.9|
4,1,6.6|
4,2,7.8|
4,3,2.7|
4,4,3.1|
4,5,6.7|
4,6,7|
4,7,7.7|
5,0,0.6|
5,1,6.4|
5,2,0.63|
5,3,2|
5,4,3.1|
5,5,1.8|
5,6,3.3|
5,7,4.5|
6,0,6.4|
6,1,2.4|
6,2,8.9|
6,3,9.2|
6,4,6.9|
6,5,6.9|
6,6,2.4|
6,7,2|
7,0,4|
7,1,2.9|
7,2,1.1|
7,3,4.8|
7,4,7.1|
7,5,5.7|
7,6,2.9|
7,7,3.4|
];
constraint_x6_y6=[
0,0,3.6|
0,1,2.2|
0,2,3|
0,3,0.13|
0,4,9|
0,5,8.9|
0,6,7.4|
0,7,0.89|
1,0,1.2|
1,1,4|
1,2,5.8|
1,3,5.8|
1,4,3|
1,5,2.5|
1,6,4.8|
1,7,7.8|
2,0,7.8|
2,1,6|
2,2,6.3|
2,3,6.1|
2,4,9.5|
2,5,3.4|
2,6,4.8|
2,7,4.3|
3,0,7.2|
3,1,4.1|
3,2,5.5|
3,3,7.8|
3,4,6.2|
3,5,9.6|
3,6,9.9|
3,7,0.72|
4,0,3|
4,1,0.32|
4,2,4.4|
4,3,5.4|
4,4,4.5|
4,5,8.7|
4,6,9.4|
4,7,6.1|
5,0,7.5|
5,1,3.3|
5,2,5.5|
5,3,6.1|
5,4,9.6|
5,5,0.2|
5,6,6.3|
5,7,0.42|
6,0,8.1|
6,1,3|
6,2,2.9|
6,3,3.8|
6,4,1.4|
6,5,7.1|
6,6,7|
6,7,4.7|
7,0,6.6|
7,1,9.8|
7,2,6.7|
7,3,6.8|
7,4,6.9|
7,5,0.11|
7,6,5.1|
7,7,9.1|
];
constraint_x7_y7=[
0,0,1.8|
0,1,5.1|
0,2,5.9|
0,3,6.3|
0,4,4.4|
0,5,7.7|
0,6,6.6|
0,7,1.1|
1,0,3.8|
1,1,1.8|
1,2,5.5|
1,3,8.5|
1,4,6.7|
1,5,1.9|
1,6,3.8|
1,7,6.2|
2,0,9.6|
2,1,4.4|
2,2,3.2|
2,3,8.4|
2,4,1.3|
2,5,6.7|
2,6,8|
2,7,7.9|
3,0,5.4|
3,1,7.9|
3,2,9.5|
3,3,4.1|
3,4,1.7|
3,5,2.4|
3,6,2.9|
3,7,8.4|
4,0,5.3|
4,1,3.5|
4,2,0.47|
4,3,2.7|
4,4,2.2|
4,5,2.8|
4,6,5.3|
4,7,0.26|
5,0,5.1|
5,1,6.8|
5,2,5.6|
5,3,9.4|
5,4,7.5|
5,5,9.5|
5,6,5|
5,7,7.9|
6,0,8.4|
6,1,1.3|
6,2,3.8|
6,3,5.5|
6,4,2.3|
6,5,4.8|
6,6,3.4|
6,7,7.3|
7,0,7.7|
7,1,6.1|
7,2,8.8|
7,3,0.96|
7,4,3.7|
7,5,2|
7,6,8.3|
7,7,1.7|
];
constraint_x8_y8=[
0,0,0.63|
0,1,6.2|
0,2,3.6|
0,3,6.1|
0,4,6.8|
0,5,7.7|
0,6,6.1|
0,7,1.3|
1,0,0.014|
1,1,2.8|
1,2,8.2|
1,3,1.5|
1,4,3.6|
1,5,8.5|
1,6,8.4|
1,7,7.2|
2,0,4.8|
2,1,8.6|
2,2,9.5|
2,3,4.1|
2,4,7.6|
2,5,3|
2,6,8.7|
2,7,5.4|
3,0,6|
3,1,6.9|
3,2,3.1|
3,3,0.49|
3,4,6.4|
3,5,9.6|
3,6,9.1|
3,7,9.3|
4,0,9.1|
4,1,8.6|
4,2,7.5|
4,3,2.9|
4,4,4.7|
4,5,6.2|
4,6,9.2|
4,7,9.1|
5,0,8.9|
5,1,5.5|
5,2,1.5|
5,3,1|
5,4,1.6|
5,5,3|
5,6,1.2|
5,7,6.7|
6,0,7.8|
6,1,9.1|
6,2,9.5|
6,3,4.1|
6,4,3.5|
6,5,8.3|
6,6,0.23|
6,7,5.3|
7,0,3.2|
7,1,6.7|
7,2,4.7|
7,3,1.9|
7,4,1.4|
7,5,7.4|
7,6,3.1|
7,7,7.4|
];
constraint_x9_y9=[
0,0,3.2|
0,1,6.8|
0,2,4.1|
0,3,9.9|
0,4,7.4|
0,5,9.3|
0,6,4.7|
0,7,7|
1,0,8|
1,1,5.5|
1,2,1.2|
1,3,5.9|
1,4,9.3|
1,5,8.5|
1,6,2|
1,7,8.7|
2,0,7.7|
2,1,1.8|
2,2,7|
2,3,9.5|
2,4,3.6|
2,5,1.9|
2,6,3.3|
2,7,1.2|
3,0,2.9|
3,1,9.5|
3,2,1.5|
3,3,9.2|
3,4,9.9|
3,5,3.2|
3,6,0.5|
3,7,4.8|
4,0,1.2|
4,1,9.5|
4,2,3.8|
4,3,1|
4,4,8.7|
4,5,8.4|
4,6,3.2|
4,7,0.67|
5,0,4.7|
5,1,9.4|
5,2,0.31|
5,3,8.6|
5,4,3.2|
5,5,2.6|
5,6,2.7|
5,7,4.6|
6,0,3.3|
6,1,8.4|
6,2,4.1|
6,3,1.6|
6,4,4.4|
6,5,7|
6,6,6.1|
6,7,4|
7,0,8|
7,1,7.4|
7,2,3.8|
7,3,9.9|
7,4,9.2|
7,5,3|
7,6,9.4|
7,7,4.7|
];
initial_distribution_y1=[0.056,0.093,0.19,0.18,0.085,0.11,0.13,0.16];
initial_distribution_y2=[0.16,0.17,0.2,0.05,0.21,0.17,0.0037,0.035];
initial_distribution_y3=[0.23,0.15,0.082,0.25,0.084,0.17,0.017,0.019];
initial_distribution_y4=[0.21,0.029,0.034,0.1,0.23,0.18,0.13,0.086];
initial_distribution_y5=[0.15,0.25,0.0079,0.049,0.23,0.18,0.023,0.12];
initial_distribution_y6=[0.21,0.19,0.046,0.19,0.22,0.051,0.017,0.079];
initial_distribution_y7=[0.087,0.06,0.27,0.0099,0.13,0.085,0.013,0.34];
initial_distribution_y8=[0.1,0.16,0.11,0.25,0.018,0.028,0.14,0.2];
initial_distribution_y9=[0.15,0.13,0.25,0.11,0.052,0.039,0.072,0.2];
transition_y1=[
0.032,0.025,0.22,0.12,0.16,0.17,0.14,0.14|
0.14,0.12,0.14,0.11,0.23,0.19,0.0068,0.064|
0.038,0.092,0.082,0.14,0.12,0.19,0.2,0.14|
0.19,0.12,0.12,0.17,0.046,0.14,0.16,0.065|
0.044,0.18,0.16,0.011,0.14,0.1,0.23,0.13|
0.077,0.16,0.19,0.2,0.12,0.079,0.088,0.084|
0.13,0.074,0.012,0.11,0.11,0.17,0.22,0.18|
0.13,0.045,0.17,0.16,0.032,0.21,0.009,0.24|
];
transition_y2=[
0.18,0.084,0.017,0.16,0.22,0.12,0.08,0.14|
0.11,0.1,0.16,0.11,0.18,0.13,0.14,0.067|
0.09,0.014,0.27,0.041,0.12,0.2,0.066,0.2|
0.13,0.089,0.089,0.075,0.028,0.24,0.15,0.2|
0.18,0.2,0.03,0.029,0.18,0.15,0.082,0.14|
0.23,0.28,0.064,0.011,0.17,0.18,0.023,0.044|
0.0075,0.011,0.23,0.088,0.049,0.25,0.22,0.13|
0.038,0.11,0.11,0.17,0.21,0.14,0.081,0.14|
];
transition_y3=[
0.15,0.015,0.2,0.11,0.038,0.22,0.057,0.21|
0.057,0.057,0.22,0.24,0.17,0.037,0.16,0.062|
0.2,0.1,0.066,0.18,0.19,0.015,0.13,0.12|
0.21,0.11,0.066,0.16,0.15,0.089,0.11,0.11|
0.19,0.08,0.0078,0.1,0.19,0.048,0.31,0.076|
0.075,0.052,0.25,0.056,0.19,0.088,0.25,0.042|
0.21,0.084,0.15,0.23,0.14,0.0046,0.021,0.16|
0.12,0.11,0.14,0.077,0.14,0.16,0.16,0.095|
];
transition_y4=[
0.14,0.13,0.16,0.24,0.13,0.019,0.04,0.14|
0.21,0.043,0.077,0.11,0.14,0.13,0.093,0.19|
0.15,0.18,0.038,0.21,0.22,0.16,0.015,0.023|
0.059,0.037,0.16,0.047,0.2,0.19,0.18,0.13|
0.13,0.26,0.0071,0.0054,0.053,0.27,0.11,0.16|
0.2,0.13,0.15,0.15,0.067,0.0089,0.09,0.2|
0.24,0.13,0.026,0.26,0.13,0.045,0.06,0.12|
0.18,0.21,0.082,0.11,0.03,0.16,0.2,0.023|
];
transition_y5=[
0.043,0.23,0.054,0.13,0.017,0.19,0.2,0.13|
0.048,0.2,0.056,0.22,0.087,0.21,0.099,0.073|
0.027,0.055,0.14,0.18,0.24,0.076,0.081,0.2|
0.015,0.14,0.2,0.056,0.022,0.21,0.23,0.12|
0.2,0.23,0.18,0.093,0.015,0.21,0.043,0.026|
0.063,0.19,0.25,0.11,0.23,0.017,0.052,0.092|
0.074,0.15,0.19,0.1,0.094,0.12,0.13,0.14|
0.19,0.096,0.047,0.16,0.02,0.047,0.22,0.21|
];
transition_y6=[
0.073,0.13,0.2,0.19,0.16,0.19,0.02,0.04|
0.042,0.25,0.18,0.039,0.066,0.14,0.12,0.16|
0.016,0.033,0.21,0.17,0.15,0.15,0.23,0.049|
0.23,0.071,0.24,0.04,0.15,0.077,0.15,0.044|
0.15,0.19,0.12,0.16,0.16,0.16,0.015,0.05|
0.15,0.025,0.2,0.024,0.12,0.2,0.2,0.082|
0.057,0.3,0.084,0.029,0.049,0.27,0.12,0.089|
0.13,0.16,0.15,0.14,0.13,0.15,0.1,0.038|
];
transition_y7=[
0.046,0.078,0.21,0.22,0.18,0.16,0.02,0.092|
0.38,0.28,0.15,0.063,0.014,0.044,0.0055,0.062|
0.069,0.084,0.093,0.18,0.12,0.12,0.15,0.18|
0.18,0.17,0.038,0.045,0.1,0.18,0.11,0.18|
0.051,0.33,0.12,0.042,0.015,0.2,0.078,0.16|
0.053,0.18,0.022,0.19,0.075,0.14,0.17,0.17|
0.0097,0.22,0.025,0.19,0.064,0.072,0.23,0.2|
0.17,0.026,0.17,0.029,0.2,0.17,0.09,0.15|
];
transition_y8=[
0.13,0.2,0.0081,0.039,0.093,0.25,0.049,0.23|
0.14,0.15,0.16,0.029,0.11,0.011,0.21,0.18|
0.17,0.1,0.14,0.054,0.13,0.17,0.036,0.2|
0.24,0.025,0.052,0.24,0.093,0.18,0.15,0.017|
0.063,0.052,0.23,0.2,0.15,0.12,0.092,0.088|
0.041,0.1,0.19,0.2,0.13,0.082,0.12,0.13|
0.073,0.049,0.094,0.11,0.15,0.16,0.18,0.19|
0.042,0.19,0.047,0.078,0.16,0.15,0.23,0.1|
];
transition_y9=[
0.079,0.33,0.12,0.092,0.013,0.2,0.13,0.031|
0.072,0.11,0.087,0.043,0.1,0.17,0.099,0.32|
0.15,0.18,0.15,0.16,0.0037,0.17,0.024,0.17|
0.12,0.19,0.24,0.11,0.033,0.093,0.21,0.0087|
0.12,0.18,0.076,0.089,0.23,0.16,0.1,0.034|
0.094,0.099,0.11,0.17,0.16,0.21,0.006,0.14|
0.28,0.045,0.22,0.062,0.11,0.059,0.087,0.14|
0.037,0.1,0.092,0.11,0.13,0.15,0.15,0.22|
];
